p cnf 18 59
-1 4 -5 0
3 -9 15 0
5 -10 11 0
8 -10 14 0
1 -5 -10 0
1 5 -11 0
5 -11 -18 0
-1 3 -14 0
-2 -10 11 0
1 -12 18 0
-4 13 -16 0
-5 -17 -18 0
9 11 -15 0
-2 10 16 0
1 4 7 0
-11 17 18 0
7 13 15 0
-7 16 -17 0
-10 -12 -13 0
-7 13 15 0
2 -8 10 0
-7 10 18 0
-1 -14 18 0
9 -10 -16 0
-5 9 -15 0
11 14 -18 0
-2 -10 -15 0
-2 3 -14 0
4 -7 -9 0
1 -9 -10 0
2 7 -9 0
4 -7 -10 0
4 15 -16 0
-1 -12 -18 0
12 -16 -17 0
-6 8 -11 0
7 10 16 0
-1 12 18 0
3 -6 -8 0
2 3 -8 0
1 -2 7 0
-5 -13 17 0
2 -8 -15 0
-10 16 18 0
-5 -11 -18 0
-3 9 -15 0
5 11 14 0
-12 -15 17 0
9 12 -13 0
7 11 13 0
-5 12 -13 0
4 -13 15 0
-5 -15 18 0
-1 3 -17 0
1 -4 14 0
4 5 17 0
1 5 14 0
-8 -9 14 0
9 16 18 0
